p tw 32 71
1 11
1 3
1 7
2 22
2 17
2 9
3 17
3 11
3 4
4 17
4 18
4 6
5 8
5 13
5 27
5 12
6 24
6 19
6 18
7 13
7 28
7 15
8 12
8 31
8 9
9 15
9 31
10 20
10 19
10 14
10 26
11 21
11 28
12 13
12 16
13 27
13 28
13 16
14 26
14 15
14 16
15 18
15 16
16 30
16 24
17 22
17 23
17 18
18 23
19 24
19 20
19 29
20 21
20 32
21 28
21 32
22 23
22 25
23 25
24 30
24 29
25 31
25 32
25 26
27 28
27 29
28 29
29 30
30 31
30 32
31 32
